experiments/eusolverstring/2/TrainGenes/1111000011011011101101000010111000110111000001000000000000/99_.out
1 {f:func30(Param1,","," ",str.++(func37(Param0),"."))}
0.0002010000
0.0000000000
25.3775140000
